p tw 138 150
1 2
2 51
3 14
3 30
4 43
5 6
6 7
7 8
8 9
9 10
10 11
11 12
12 13
13 15
14 40
15 16
16 17
17 18
18 19
19 20
20 21
21 22
22 23
23 24
23 40
24 26
25 36
26 27
27 28
27 40
28 29
29 30
30 31
31 32
31 38
32 33
33 34
33 38
34 35
35 37
36 45
37 38
37 40
38 39
39 43
40 41
41 42
42 43
43 44
45 46
45 59
46 47
47 48
48 49
49 50
50 52
51 62
52 53
53 54
54 55
55 56
56 57
57 58
58 43
59 60
60 61
61 63
62 73
63 64
64 65
65 66
66 67
67 68
68 69
68 82
69 70
70 71
71 72
72 74
73 84
74 75
75 76
76 77
77 78
78 79
79 80
80 81
81 43
82 83
83 85
84 95
85 86
86 87
87 88
88 89
88 91
89 90
90 85
91 92
92 93
93 94
94 96
95 106
95 25
96 97
97 98
98 99
99 100
100 101
101 102
102 103
103 104
103 118
104 105
105 107
106 117
107 108
108 109
109 110
110 111
111 112
112 113
113 114
114 115
115 116
116 43
117 128
117 133
118 119
119 120
120 121
121 122
122 123
123 124
124 125
125 126
126 127
127 129
128 3
129 130
130 131
131 132
132 133
133 134
134 135
135 136
136 137
137 138
138 4
138 5
